;; translated from ./ctigar/ken-imp.c.vmt
;; original benchmark available at: https://es-static.fbk.eu/people/griggio/ic3ia/index.html
;; author: Alberto Griggio <griggio@fbk.eu>
(set-logic HORN)
(declare-fun state (Bool Bool Bool Bool Int Int Int Int) Bool)
(assert (forall ((|.s.0| Bool) (|.s.2| Bool) (|.s.1| Bool) (|.s.2.next| Bool) (|.s.0.next| Bool) (|.s.1.next| Bool) (|.s.3.next| Bool) (|main.i.next| Int) (|main.i| Int) (|main.j.next| Int) (|main.j| Int) (|main.x.next| Int) (|main.x| Int) (|main.y.next| Int) (|main.y| Int) (|.s.3| Bool)) (=> (let ((.def_17 (not .s.3)))
(let ((.def_14 (not .s.2)))
(let ((.def_10 (not .s.1)))
(let ((.def_12 (and .def_10 .s.0)))
(let ((.def_15 (and .def_12 .def_14)))
(let ((.def_18 (and .def_15 .def_17)))
.def_18)))))) (state |.s.1| |.s.0| |.s.2| |.s.3| |main.i| |main.j| |main.x| |main.y|))))
(assert (forall ((|.s.0| Bool) (|.s.2| Bool) (|.s.1| Bool) (|.s.2.next| Bool) (|.s.0.next| Bool) (|.s.1.next| Bool) (|.s.3.next| Bool) (|main.i.next| Int) (|main.i| Int) (|main.j.next| Int) (|main.j| Int) (|main.x.next| Int) (|main.x| Int) (|main.y.next| Int) (|main.y| Int) (|.s.3| Bool)) (=> (and (state |.s.1| |.s.0| |.s.2| |.s.3| |main.i| |main.j| |main.x| |main.y|) (let ((.def_19 (not .s.0)))
(let ((.def_10 (not .s.1)))
(let ((.def_20 (and .def_10 .def_19)))
(let ((.def_14 (not .s.2)))
(let ((.def_85 (and .def_14 .def_20)))
(let ((.def_17 (not .s.3)))
(let ((.def_190 (and .def_17 .def_85)))
(let ((.def_191 (not .def_190)))
(let ((.def_55 (not .s.2.next)))
(let ((.def_27 (not .s.0.next)))
(let ((.def_25 (not .s.1.next)))
(let ((.def_28 (and .def_25 .def_27)))
(let ((.def_56 (and .def_28 .def_55)))
(let ((.def_54 (not .s.3.next)))
(let ((.def_57 (and .def_54 .def_56)))
(let ((.def_35 (= main.i main.i.next)))
(let ((.def_58 (and .def_35 .def_57)))
(let ((.def_39 (= main.j main.j.next)))
(let ((.def_59 (and .def_39 .def_58)))
(let ((.def_43 (= main.x main.x.next)))
(let ((.def_60 (and .def_43 .def_59)))
(let ((.def_47 (= main.y main.y.next)))
(let ((.def_61 (and .def_47 .def_60)))
(let ((.def_192 (or .def_61 .def_191)))
(let ((.def_77 (and .s.1.next .def_27)))
(let ((.def_78 (and .def_55 .def_77)))
(let ((.def_184 (and .def_54 .def_78)))
(let ((.def_183 (= main.i main.x.next)))
(let ((.def_185 (and .def_183 .def_184)))
(let ((.def_186 (and .def_35 .def_185)))
(let ((.def_187 (and .def_39 .def_186)))
(let ((.def_188 (and .def_47 .def_187)))
(let ((.def_12 (and .def_10 .s.0)))
(let ((.def_15 (and .def_12 .def_14)))
(let ((.def_18 (and .def_15 .def_17)))
(let ((.def_182 (not .def_18)))
(let ((.def_189 (or .def_182 .def_188)))
(let ((.def_193 (and .def_189 .def_192)))
(let ((.def_176 (= main.j main.y.next)))
(let ((.def_67 (and .s.1.next .s.0.next)))
(let ((.def_68 (and .def_55 .def_67)))
(let ((.def_121 (and .def_54 .def_68)))
(let ((.def_177 (and .def_121 .def_176)))
(let ((.def_178 (and .def_35 .def_177)))
(let ((.def_179 (and .def_39 .def_178)))
(let ((.def_180 (and .def_43 .def_179)))
(let ((.def_63 (and .s.1 .def_19)))
(let ((.def_64 (and .def_14 .def_63)))
(let ((.def_174 (and .def_17 .def_64)))
(let ((.def_175 (not .def_174)))
(let ((.def_181 (or .def_175 .def_180)))
(let ((.def_194 (and .def_181 .def_193)))
(let ((.def_167 (and .s.2.next .def_67)))
(let ((.def_168 (and .def_54 .def_167)))
(let ((.def_169 (and .def_35 .def_168)))
(let ((.def_170 (and .def_39 .def_169)))
(let ((.def_171 (and .def_43 .def_170)))
(let ((.def_172 (and .def_47 .def_171)))
(let ((.def_155 (= main.x 0)))
(let ((.def_50 (and .s.1 .s.0)))
(let ((.def_51 (and .def_14 .def_50)))
(let ((.def_154 (and .def_17 .def_51)))
(let ((.def_165 (and .def_154 .def_155)))
(let ((.def_166 (not .def_165)))
(let ((.def_173 (or .def_166 .def_172)))
(let ((.def_195 (and .def_173 .def_194)))
(let ((.def_30 (and .def_28 .s.2.next)))
(let ((.def_159 (and .def_30 .def_54)))
(let ((.def_160 (and .def_35 .def_159)))
(let ((.def_161 (and .def_39 .def_160)))
(let ((.def_162 (and .def_43 .def_161)))
(let ((.def_163 (and .def_47 .def_162)))
(let ((.def_156 (not .def_155)))
(let ((.def_157 (and .def_154 .def_156)))
(let ((.def_158 (not .def_157)))
(let ((.def_164 (or .def_158 .def_163)))
(let ((.def_196 (and .def_164 .def_195)))
(let ((.def_91 (and .def_25 .s.0.next)))
(let ((.def_147 (and .s.2.next .def_91)))
(let ((.def_148 (and .def_54 .def_147)))
(let ((.def_144 (* (- 1) main.x.next)))
(let ((.def_145 (+ main.x .def_144)))
(let ((.def_146 (= .def_145 1)))
(let ((.def_149 (and .def_146 .def_148)))
(let ((.def_150 (and .def_35 .def_149)))
(let ((.def_151 (and .def_39 .def_150)))
(let ((.def_152 (and .def_47 .def_151)))
(let ((.def_21 (and .s.2 .def_20)))
(let ((.def_142 (and .def_17 .def_21)))
(let ((.def_143 (not .def_142)))
(let ((.def_153 (or .def_143 .def_152)))
(let ((.def_197 (and .def_153 .def_196)))
(let ((.def_135 (and .s.2.next .def_77)))
(let ((.def_136 (and .def_54 .def_135)))
(let ((.def_132 (* (- 1) main.y.next)))
(let ((.def_133 (+ main.y .def_132)))
(let ((.def_134 (= .def_133 1)))
(let ((.def_137 (and .def_134 .def_136)))
(let ((.def_138 (and .def_35 .def_137)))
(let ((.def_139 (and .def_39 .def_138)))
(let ((.def_140 (and .def_43 .def_139)))
(let ((.def_127 (and .def_12 .s.2)))
(let ((.def_128 (and .def_17 .def_127)))
(let ((.def_129 (not .def_128)))
(let ((.def_141 (or .def_129 .def_140)))
(let ((.def_198 (and .def_141 .def_197)))
(let ((.def_122 (and .def_35 .def_121)))
(let ((.def_123 (and .def_39 .def_122)))
(let ((.def_124 (and .def_43 .def_123)))
(let ((.def_125 (and .def_47 .def_124)))
(let ((.def_118 (and .s.2 .def_63)))
(let ((.def_119 (and .def_17 .def_118)))
(let ((.def_120 (not .def_119)))
(let ((.def_126 (or .def_120 .def_125)))
(let ((.def_199 (and .def_126 .def_198)))
(let ((.def_112 (and .s.3.next .def_56)))
(let ((.def_113 (and .def_35 .def_112)))
(let ((.def_114 (and .def_39 .def_113)))
(let ((.def_115 (and .def_43 .def_114)))
(let ((.def_116 (and .def_47 .def_115)))
(let ((.def_105 (= main.i main.j)))
(let ((.def_103 (and .s.2 .def_50)))
(let ((.def_104 (and .def_17 .def_103)))
(let ((.def_110 (and .def_104 .def_105)))
(let ((.def_111 (not .def_110)))
(let ((.def_117 (or .def_111 .def_116)))
(let ((.def_200 (and .def_117 .def_199)))
(let ((.def_106 (not .def_105)))
(let ((.def_107 (and .def_104 .def_106)))
(let ((.def_108 (not .def_107)))
(let ((.def_69 (and .s.3.next .def_68)))
(let ((.def_70 (and .def_35 .def_69)))
(let ((.def_71 (and .def_39 .def_70)))
(let ((.def_72 (and .def_43 .def_71)))
(let ((.def_73 (and .def_47 .def_72)))
(let ((.def_109 (or .def_73 .def_108)))
(let ((.def_201 (and .def_109 .def_200)))
(let ((.def_88 (= main.y 0)))
(let ((.def_99 (not .def_88)))
(let ((.def_86 (and .s.3 .def_85)))
(let ((.def_100 (and .def_86 .def_99)))
(let ((.def_101 (not .def_100)))
(let ((.def_32 (and .def_30 .s.3.next)))
(let ((.def_36 (and .def_32 .def_35)))
(let ((.def_40 (and .def_36 .def_39)))
(let ((.def_44 (and .def_40 .def_43)))
(let ((.def_48 (and .def_44 .def_47)))
(let ((.def_102 (or .def_48 .def_101)))
(let ((.def_202 (and .def_102 .def_201)))
(let ((.def_92 (and .def_55 .def_91)))
(let ((.def_93 (and .s.3.next .def_92)))
(let ((.def_94 (and .def_35 .def_93)))
(let ((.def_95 (and .def_39 .def_94)))
(let ((.def_96 (and .def_43 .def_95)))
(let ((.def_97 (and .def_47 .def_96)))
(let ((.def_89 (and .def_86 .def_88)))
(let ((.def_90 (not .def_89)))
(let ((.def_98 (or .def_90 .def_97)))
(let ((.def_203 (and .def_98 .def_202)))
(let ((.def_79 (and .s.3.next .def_78)))
(let ((.def_80 (and .def_35 .def_79)))
(let ((.def_81 (and .def_39 .def_80)))
(let ((.def_82 (and .def_43 .def_81)))
(let ((.def_83 (and .def_47 .def_82)))
(let ((.def_75 (and .def_15 .s.3)))
(let ((.def_76 (not .def_75)))
(let ((.def_84 (or .def_76 .def_83)))
(let ((.def_204 (and .def_84 .def_203)))
(let ((.def_65 (and .s.3 .def_64)))
(let ((.def_66 (not .def_65)))
(let ((.def_74 (or .def_66 .def_73)))
(let ((.def_205 (and .def_74 .def_204)))
(let ((.def_52 (and .s.3 .def_51)))
(let ((.def_53 (not .def_52)))
(let ((.def_62 (or .def_53 .def_61)))
(let ((.def_206 (and .def_62 .def_205)))
(let ((.def_22 (and .s.3 .def_21)))
(let ((.def_23 (not .def_22)))
(let ((.def_49 (or .def_23 .def_48)))
(let ((.def_207 (and .def_49 .def_206)))
.def_207))))))))))))))))))))))))))))))))))))))))))))))))))))))))))))))))))))))))))))))))))))))))))))))))))))))))))))))))))))))))))))))))))))))))))))))))))))))))))))))))))))))))))))))))))))) (state |.s.1.next| |.s.0.next| |.s.2.next| |.s.3.next| |main.i.next| |main.j.next| |main.x.next| |main.y.next|))))
(assert (forall ((|.s.0| Bool) (|.s.2| Bool) (|.s.1| Bool) (|.s.2.next| Bool) (|.s.0.next| Bool) (|.s.1.next| Bool) (|.s.3.next| Bool) (|main.i.next| Int) (|main.i| Int) (|main.j.next| Int) (|main.j| Int) (|main.x.next| Int) (|main.x| Int) (|main.y.next| Int) (|main.y| Int) (|.s.3| Bool)) (=> (state |.s.1| |.s.0| |.s.2| |.s.3| |main.i| |main.j| |main.x| |main.y|) (let ((.def_19 (not .s.0)))
(let ((.def_10 (not .s.1)))
(let ((.def_20 (and .def_10 .def_19)))
(let ((.def_21 (and .s.2 .def_20)))
(let ((.def_22 (and .s.3 .def_21)))
(let ((.def_23 (not .def_22)))
.def_23)))))))))
(check-sat)
